<?xml version = "1.0" standalone="yes"?>
<!-- This file has been generated by DOcplex version 2.23.222  -->
<CPLEXSolution version="1.0">
 <header
   problemName="CVRP"
   objectiveValue="7381.18"
  />
 <variables>
  <variable name="x_0_1" index="0" value="1.00000"/>
  <variable name="x_0_4" index="3" value="1.00000"/>
  <variable name="x_0_5" index="4" value="1.00000"/>
  <variable name="x_0_6" index="5" value="1.00000"/>
  <variable name="x_0_7" index="6" value="1.00000"/>
  <variable name="x_1_10" index="19" value="1.00000"/>
  <variable name="x_2_0" index="20" value="1.00000"/>
  <variable name="x_3_0" index="30" value="1.00000"/>
  <variable name="x_4_3" index="43" value="1.00000"/>
  <variable name="x_5_0" index="50" value="1.00000"/>
  <variable name="x_6_9" index="68" value="1.00000"/>
  <variable name="x_7_8" index="77" value="1.00000"/>
  <variable name="x_8_2" index="82" value="1.00000"/>
  <variable name="x_9_0" index="90" value="1.00000"/>
  <variable name="x_10_0" index="100" value="1.00000"/>
  <variable name="u_1" index="110" value="22.00000"/>
  <variable name="u_2" index="111" value="59.00000"/>
  <variable name="u_3" index="112" value="55.00000"/>
  <variable name="u_4" index="113" value="33.00000"/>
  <variable name="u_5" index="114" value="41.00000"/>
  <variable name="u_6" index="115" value="26.00000"/>
  <variable name="u_7" index="116" value="25.00000"/>
  <variable name="u_8" index="117" value="28.00000"/>
  <variable name="u_9" index="118" value="47.00000"/>
  <variable name="u_10" index="119" value="59.00000"/>
 </variables>
</CPLEXSolution>
